10
629 553 807  107
580 594 687  620
665 437 952  144
636 669 830  265
587 720 815  316
861 551 768  274
879 591 637  791
873 952 997  848
605 634 998  629
415 700 890  495
15
359 785 553  238 155
545 425 714  263 30
168 746 356  168 169
426 191 350  33 88
488 98 320  151 203
171 403 132  63 229
22 256 675  203 128
677 577 311  3 193
363 594 149  267 194
778 355 512  207 167
680 557 660  184 23
102 162 714  22 240
292 33 627  284 83
166 202 261  272 48
126 42 335  45 224
